


































































































50 19 53 28 23 
18 2 12 72 10 
8 0 52 69 37 
49 48 39 58 66 
68 45 54 35 61 
43 25 46 32 67 
51 59 33 76 11 
17 31 4 60 71 
1 26 65 22 38 
21 24 14 34 44 
62 13 16 6 56 
47 36 29 63 57 5 
75 3 73 55 40 
20 41 42 30 70 7 
74 15 64 9 27 

